p edge 100 990
e 1 4
e 1 6
e 1 11
e 1 18
e 1 20
e 1 24
e 1 28
e 1 29
e 1 31
e 1 32
e 1 33
e 1 35
e 1 39
e 1 49
e 1 50
e 1 52
e 1 53
e 1 55
e 1 59
e 1 60
e 1 69
e 1 72
e 1 73
e 1 80
e 1 81
e 1 83
e 1 87
e 1 90
e 1 92
e 1 94
e 2 10
e 2 16
e 2 22
e 2 23
e 2 25
e 2 27
e 2 28
e 2 29
e 2 30
e 2 31
e 2 32
e 2 36
e 2 59
e 2 67
e 2 69
e 2 72
e 2 74
e 2 83
e 2 87
e 3 12
e 3 16
e 3 22
e 3 23
e 3 24
e 3 28
e 3 39
e 3 41
e 3 48
e 3 49
e 3 52
e 3 59
e 3 69
e 3 71
e 3 72
e 3 92
e 3 98
e 4 9
e 4 10
e 4 15
e 4 17
e 4 20
e 4 27
e 4 42
e 4 53
e 4 62
e 4 65
e 4 66
e 4 67
e 4 68
e 4 72
e 4 75
e 4 91
e 4 99
e 5 14
e 5 19
e 5 23
e 5 26
e 5 30
e 5 31
e 5 41
e 5 43
e 5 45
e 5 48
e 5 64
e 5 79
e 5 88
e 5 90
e 5 93
e 5 94
e 5 96
e 5 97
e 6 7
e 6 11
e 6 17
e 6 19
e 6 26
e 6 28
e 6 33
e 6 38
e 6 39
e 6 51
e 6 58
e 6 63
e 6 79
e 6 87
e 6 97
e 7 8
e 7 14
e 7 15
e 7 19
e 7 31
e 7 32
e 7 38
e 7 39
e 7 43
e 7 47
e 7 52
e 7 56
e 7 61
e 7 65
e 7 68
e 7 70
e 7 73
e 7 76
e 7 78
e 7 85
e 7 88
e 7 89
e 8 18
e 8 37
e 8 39
e 8 43
e 8 54
e 8 63
e 8 67
e 8 71
e 8 79
e 8 85
e 8 86
e 8 93
e 8 96
e 8 100
e 9 16
e 9 22
e 9 25
e 9 27
e 9 28
e 9 36
e 9 40
e 9 44
e 9 45
e 9 62
e 9 67
e 9 71
e 9 77
e 9 81
e 9 91
e 9 94
e 9 95
e 9 98
e 10 11
e 10 14
e 10 27
e 10 28
e 10 31
e 10 36
e 10 49
e 10 50
e 10 51
e 10 52
e 10 54
e 10 60
e 10 73
e 10 81
e 10 91
e 10 95
e 10 96
e 10 99
e 11 12
e 11 13
e 11 23
e 11 24
e 11 25
e 11 28
e 11 29
e 11 31
e 11 34
e 11 39
e 11 43
e 11 48
e 11 54
e 11 55
e 11 58
e 11 60
e 11 61
e 11 62
e 11 73
e 11 75
e 11 77
e 11 80
e 11 96
e 12 13
e 12 15
e 12 18
e 12 22
e 12 24
e 12 30
e 12 35
e 12 44
e 12 46
e 12 50
e 12 52
e 12 53
e 12 55
e 12 56
e 12 60
e 12 65
e 12 67
e 12 70
e 12 80
e 12 83
e 12 85
e 12 89
e 12 94
e 13 17
e 13 22
e 13 24
e 13 43
e 13 49
e 13 52
e 13 53
e 13 54
e 13 74
e 13 75
e 13 79
e 13 81
e 13 83
e 13 84
e 13 87
e 13 92
e 13 93
e 13 95
e 13 99
e 13 100
e 14 19
e 14 24
e 14 32
e 14 38
e 14 41
e 14 52
e 14 53
e 14 56
e 14 57
e 14 66
e 14 68
e 14 74
e 14 81
e 14 86
e 14 95
e 15 23
e 15 27
e 15 32
e 15 33
e 15 36
e 15 39
e 15 43
e 15 58
e 15 62
e 15 65
e 15 66
e 15 71
e 15 74
e 15 78
e 15 80
e 15 81
e 15 86
e 15 88
e 15 90
e 15 97
e 15 99
e 16 21
e 16 29
e 16 42
e 16 46
e 16 49
e 16 51
e 16 52
e 16 55
e 16 62
e 16 65
e 16 74
e 16 90
e 17 23
e 17 55
e 17 56
e 17 62
e 17 64
e 17 65
e 17 87
e 17 88
e 17 94
e 17 95
e 17 96
e 18 19
e 18 26
e 18 27
e 18 28
e 18 30
e 18 38
e 18 42
e 18 43
e 18 53
e 18 55
e 18 76
e 18 88
e 18 90
e 18 95
e 19 27
e 19 32
e 19 39
e 19 53
e 19 54
e 19 56
e 19 65
e 19 67
e 19 77
e 19 85
e 19 89
e 19 95
e 19 98
e 19 100
e 20 21
e 20 25
e 20 37
e 20 40
e 20 46
e 20 48
e 20 53
e 20 55
e 20 64
e 20 68
e 20 71
e 20 76
e 20 89
e 20 92
e 20 97
e 21 24
e 21 33
e 21 35
e 21 36
e 21 40
e 21 49
e 21 54
e 21 61
e 21 78
e 21 79
e 21 83
e 21 88
e 21 97
e 21 99
e 22 24
e 22 31
e 22 32
e 22 40
e 22 72
e 22 85
e 22 86
e 22 92
e 22 93
e 22 95
e 23 24
e 23 29
e 23 32
e 23 38
e 23 43
e 23 46
e 23 49
e 23 51
e 23 60
e 23 64
e 23 69
e 23 74
e 23 80
e 23 82
e 23 86
e 23 88
e 23 91
e 23 94
e 23 96
e 23 99
e 24 31
e 24 34
e 24 37
e 24 38
e 24 45
e 24 46
e 24 59
e 24 60
e 24 65
e 24 70
e 24 75
e 24 81
e 24 84
e 24 85
e 24 87
e 24 89
e 24 90
e 24 95
e 24 97
e 24 100
e 25 31
e 25 34
e 25 48
e 25 49
e 25 54
e 25 56
e 25 61
e 25 62
e 25 70
e 25 73
e 25 74
e 25 75
e 25 80
e 25 81
e 25 86
e 25 91
e 25 94
e 25 96
e 26 28
e 26 31
e 26 37
e 26 38
e 26 42
e 26 49
e 26 50
e 26 58
e 26 60
e 26 62
e 26 71
e 26 76
e 26 77
e 26 79
e 26 84
e 26 86
e 26 97
e 27 31
e 27 32
e 27 42
e 27 45
e 27 51
e 27 62
e 27 86
e 27 90
e 27 93
e 28 35
e 28 37
e 28 40
e 28 42
e 28 55
e 28 60
e 28 75
e 28 81
e 28 84
e 28 86
e 28 90
e 28 94
e 28 96
e 29 33
e 29 39
e 29 42
e 29 46
e 29 47
e 29 53
e 29 61
e 29 65
e 29 79
e 29 82
e 29 86
e 29 87
e 29 89
e 29 96
e 29 98
e 29 99
e 30 56
e 30 57
e 30 67
e 30 69
e 30 70
e 30 71
e 30 75
e 30 80
e 30 89
e 30 90
e 30 96
e 30 97
e 30 98
e 30 99
e 31 39
e 31 46
e 31 50
e 31 53
e 31 56
e 31 66
e 31 68
e 31 69
e 31 72
e 31 75
e 31 77
e 31 82
e 31 87
e 31 92
e 31 93
e 31 94
e 31 100
e 32 38
e 32 42
e 32 43
e 32 48
e 32 57
e 32 59
e 32 62
e 32 75
e 32 88
e 32 90
e 32 97
e 33 35
e 33 40
e 33 42
e 33 43
e 33 57
e 33 63
e 33 65
e 33 69
e 33 70
e 33 71
e 33 74
e 33 76
e 33 79
e 33 96
e 34 45
e 34 52
e 34 62
e 34 69
e 34 76
e 34 77
e 34 81
e 34 84
e 34 88
e 34 89
e 34 98
e 35 41
e 35 44
e 35 45
e 35 48
e 35 61
e 35 66
e 35 67
e 35 72
e 35 80
e 36 49
e 36 50
e 36 72
e 36 77
e 36 78
e 36 79
e 36 85
e 36 90
e 36 98
e 37 61
e 37 67
e 37 72
e 37 73
e 37 75
e 37 84
e 37 98
e 37 99
e 37 100
e 38 50
e 38 52
e 38 55
e 38 71
e 38 73
e 38 86
e 38 90
e 38 93
e 39 42
e 39 47
e 39 50
e 39 52
e 39 54
e 39 60
e 39 70
e 39 71
e 39 74
e 39 76
e 39 80
e 39 82
e 39 84
e 39 89
e 39 91
e 39 93
e 39 97
e 40 43
e 40 47
e 40 53
e 40 55
e 40 58
e 40 59
e 40 60
e 40 61
e 40 62
e 40 69
e 40 76
e 40 80
e 40 81
e 40 86
e 40 89
e 40 93
e 40 95
e 40 99
e 41 56
e 41 59
e 41 68
e 41 70
e 41 74
e 41 80
e 41 81
e 41 82
e 41 90
e 41 97
e 41 98
e 42 46
e 42 48
e 42 63
e 42 74
e 42 78
e 42 79
e 42 85
e 42 100
e 43 45
e 43 47
e 43 52
e 43 58
e 43 61
e 43 69
e 43 73
e 43 75
e 43 80
e 43 81
e 43 91
e 43 94
e 43 98
e 44 52
e 44 53
e 44 62
e 44 66
e 44 67
e 44 69
e 44 75
e 44 80
e 44 81
e 44 92
e 45 46
e 45 54
e 45 56
e 45 57
e 45 65
e 45 67
e 45 68
e 45 71
e 45 72
e 45 73
e 45 75
e 45 76
e 45 81
e 45 84
e 45 95
e 46 55
e 46 61
e 46 63
e 46 66
e 46 72
e 46 73
e 46 75
e 46 79
e 46 80
e 46 84
e 46 85
e 46 86
e 46 95
e 46 96
e 47 51
e 47 72
e 47 74
e 47 86
e 47 92
e 47 93
e 47 95
e 47 100
e 48 49
e 48 50
e 48 53
e 48 58
e 48 76
e 48 92
e 48 95
e 48 99
e 49 52
e 49 54
e 49 59
e 49 62
e 49 63
e 49 66
e 49 69
e 49 70
e 49 72
e 49 89
e 49 90
e 50 53
e 50 60
e 50 62
e 50 66
e 50 75
e 50 79
e 50 81
e 50 84
e 50 91
e 50 98
e 51 53
e 51 55
e 51 71
e 51 75
e 51 78
e 51 81
e 51 84
e 51 85
e 51 94
e 52 56
e 52 61
e 52 63
e 52 70
e 52 71
e 52 82
e 52 89
e 52 99
e 53 59
e 53 64
e 53 68
e 53 72
e 53 73
e 53 80
e 53 87
e 53 97
e 54 59
e 54 66
e 54 75
e 54 81
e 54 89
e 54 97
e 54 98
e 55 67
e 55 73
e 55 80
e 55 87
e 55 90
e 55 97
e 56 64
e 56 66
e 56 67
e 56 68
e 56 77
e 56 78
e 56 82
e 56 90
e 56 94
e 56 97
e 56 98
e 57 59
e 57 60
e 57 69
e 57 87
e 57 97
e 58 60
e 58 61
e 58 63
e 58 64
e 58 69
e 58 70
e 58 71
e 58 74
e 58 85
e 58 86
e 59 63
e 59 83
e 59 89
e 59 100
e 60 62
e 60 63
e 60 69
e 60 80
e 61 63
e 61 64
e 61 66
e 61 68
e 61 69
e 61 80
e 61 88
e 61 90
e 62 65
e 62 66
e 62 73
e 62 79
e 62 92
e 62 97
e 62 99
e 63 66
e 63 68
e 63 71
e 63 72
e 63 73
e 63 77
e 63 81
e 63 86
e 63 97
e 63 100
e 64 66
e 64 69
e 64 72
e 64 74
e 64 80
e 64 82
e 64 84
e 64 85
e 64 90
e 64 91
e 64 94
e 64 99
e 64 100
e 65 68
e 65 71
e 65 74
e 65 87
e 65 88
e 65 89
e 65 91
e 65 94
e 65 97
e 65 98
e 65 99
e 66 81
e 66 85
e 66 89
e 66 90
e 66 91
e 66 92
e 66 93
e 67 72
e 67 73
e 67 74
e 67 78
e 67 82
e 67 87
e 67 93
e 67 94
e 67 97
e 68 69
e 68 70
e 68 79
e 68 80
e 68 94
e 68 95
e 68 100
e 69 82
e 69 87
e 69 93
e 69 95
e 70 84
e 70 95
e 70 98
e 70 100
e 71 74
e 71 81
e 71 87
e 71 88
e 71 91
e 71 94
e 72 74
e 72 77
e 72 78
e 72 79
e 72 82
e 72 84
e 72 91
e 72 95
e 73 75
e 73 76
e 73 80
e 73 88
e 73 97
e 74 78
e 74 79
e 74 84
e 74 90
e 74 93
e 74 95
e 74 98
e 75 84
e 75 88
e 75 95
e 76 81
e 76 90
e 76 93
e 76 94
e 76 96
e 77 78
e 77 82
e 77 86
e 77 88
e 77 94
e 78 80
e 78 82
e 78 87
e 78 93
e 78 96
e 78 97
e 79 90
e 79 98
e 79 100
e 80 82
e 80 85
e 80 91
e 80 92
e 80 96
e 80 100
e 81 86
e 81 87
e 81 88
e 81 92
e 81 93
e 82 87
e 82 88
e 82 90
e 82 92
e 82 94
e 83 84
e 83 87
e 83 92
e 83 97
e 83 100
e 84 86
e 84 90
e 84 99
e 85 94
e 85 95
e 85 99
e 86 87
e 86 88
e 86 91
e 87 89
e 87 91
e 87 93
e 88 89
e 88 90
e 88 93
e 88 98
e 89 99
e 90 95
e 90 98
e 90 99
e 91 94
e 92 96
e 93 96
e 93 98
e 94 99
e 95 98
e 96 97
e 96 100
e 97 99
e 97 100
e 98 99
